
 102   30
  10   10   10   10   10   10   10   10   10   10   10   10   10   10   10   10   10   10   10   10   10   10   10   10   10   10   10   10   10   10

   0   0   0   0   0   0   0   0   0   0   0   0   0   0   0   0   0   0   0   0   0   0   0   0   0   0   0   0   0   0   0  25 2 3 4 5 6 7 8 9 10 11 12 14 16 17 19 20 21 23 24 26 28 29 32 39 42 
   7   0   0   0   0   0   0   0   0   0   0   0   1   0   0   0   0   0   1   0   3   0   0   0   0   0   0   0   0   1   0  12 60 51 48 45 43 37 36 35 25 22 18 15 
   7   0   0   0   0   0   4   0   0   0   0   0   0   0   0   0   0   0   0   0   0   0   0   0   0   0   0   0   0   0   0  18 75 67 66 65 64 60 59 58 56 53 52 51 50 46 45 41 31 30 
   4   0   0   0   0   0   0   0   0   0   0   0   6   0   0   3   0   0   0   0   0   0   0   0   0   0   0   0   0   0   1  12 74 64 61 60 56 52 51 50 48 44 37 27 
  10   0   0   0   0   0   0   1   0   1   0   0   0   0   0   0   0   0   0   0   6   0   0   0   0   0   0   0   0   0   0  10 64 58 56 55 50 49 48 40 37 13 
   4   0   0   0   0   0   0   0   0   0   0   0   0   0   0   0   0   0   0   0   0   0   0   2   0   0   0   1   0   0   0  11 98 97 75 62 57 56 55 47 37 34 33 
   3   0   0   0   0   0   0   0   0   0   0   0   0   0   3   0   0   0   0   0   0   0   0   0   1   0   0   2   0   0   0  16 101 100 99 96 74 73 72 67 65 61 54 53 51 49 48 38 
   8   0   0   0   0   0   0   0   0   4   0   0   0   0   0   0   0   0   0   3   0   0   1   0   7   0   0   0   0   0   0  12 97 74 71 67 56 52 51 48 47 46 36 35 
   8   0   0   1   3   0   0   0   0   0   0   0   0   1   0   0   0   0   0   3   0   0   0   0   0   0   0   0   0   0   0  17 101 100 99 97 75 74 73 72 71 70 67 65 64 63 57 47 35 
   6   1   0   0   0   0   6   0   0   0   0   0   0   0   0   0   0   0   0   0   0   0   0   0   6   0   0   0   0   0   9  15 99 96 88 73 72 71 70 66 64 61 56 53 51 49 38 
   4   0   0   0   0   0   0   0   2   0   0   0   0   0   0   0   0   0   0   0   0   2   0   4   6   1   0   0   0   0   0  21 101 100 98 97 95 93 92 91 74 71 70 67 66 65 64 63 62 55 53 52 43 
   7   0   0   0   4   0   0   0   0   0   1   0   0   0   0   0   0   0   0   7   0   0   8   0   0   0   3   0   0   0   0  17 101 100 98 95 93 75 74 73 70 67 64 59 57 56 50 47 45 
   6   0   0   0   0   0   0   0   0   0   0   0   0   0   0   0   0   0   0   0   0   0   0   0   0   0   0   0   0   0   0  13 101 98 97 93 91 90 72 70 68 62 61 59 34 
  10   0   0   0   0   0  10   5   0   0   0   0   0   0   0   0   0   3   0   0   0   0   0   0   0   0   0   0   0   0   0   8 101 96 73 64 58 56 55 27 
   7   0   0   0   0   0   0   0   0   0  10   0   0   0   0   0   0   0   0   0   0   0   0   0   0   0   0   0   0   0   0  20 100 99 97 96 95 93 91 90 75 74 71 70 69 68 65 63 62 55 50 47 
   5   0   0   4   0   0   0   6   0   0   0   3   0   0   0   0   1   0   0   0   0   0   0   0   0   0   0   0   1   0   0  18 100 98 97 96 95 94 90 86 74 71 70 68 67 64 63 59 58 51 
   2   0   0   0   0   0   0   0   0   9   0   0   0   0   0   0   0   5   0   0   0   0   0   0   0   0   9   8   0   0   0  17 101 98 97 96 93 92 73 72 70 67 66 63 62 61 60 56 55 
   6   0   0   0   0   2   0   0   0   0   0   0   6   0   3   0   8   0   0   0   0   0   0   0   0   0   5   0   8   5   0  19 100 99 96 95 94 93 92 83 73 71 70 69 68 67 65 63 62 56 50 
   3   0   0   0   0   0   0   0   3   0   0   0   0   0   0   0   0   9   0   0   0   0   0   0   0   0   0   0   0   2   0  17 101 98 97 95 94 93 92 91 90 83 75 71 66 63 62 59 55 
   7   0   0   0   0   0   0   0   0   0   0   7   0   0   0   5   0   0   0   0   0   0   0   0   0   0   0   0   0   0   0  16 100 99 97 96 95 94 93 88 74 70 69 68 64 62 61 56 
   8   0   0   3   0   0   0   0   0   0   0   0   0   0   0   0   0   0   0   0   0   0   0   0   6   0   0   0   0   0   0  11 100 97 95 94 87 74 70 62 58 56 45 
   1   0   0   0   0   0   0   0   0   4   0   4   0   0   0   0   0   0   0   0   0   0   0   0   0   0   0   0   0   0   0  14 97 96 95 92 91 90 89 88 84 73 71 67 61 44 
   8   0   0   0   4   0   0   0   0   0   0   5   0   0  10   0   0   0   0   5   0   0   0   0   0   0   0   6   0   0   0  19 101 100 96 95 93 92 90 89 87 84 83 73 71 70 69 68 67 66 62 
  10   0   0   0   0   0   0   6   0   0   0   0   0   0   0   0   0   0   0   0   0   2   0   5   0   0   0   6   0   0   3  16 98 97 96 95 93 92 90 89 87 82 73 71 70 63 60 53 
   7   0   0   0   0   6   4   0   0   0   0   8   0   0   0   0   0   0   0   0   0   0   0   0   0   3   0   0   0   0   0  14 100 99 98 93 92 89 83 72 68 67 63 62 56 50 
   2   0   0   0   6   0   0   0   6   0   0   0   0   0   0   0   0   0   0   0   0   0   0   9   0   7   0   0   8   0   0  10 100 99 98 96 92 89 87 56 53 45 
   3   0   0   0   0   7   0   0   0   0   0   0   0   0   0   0   4   0   0   8   0   0   0  10   0   5  10   0   0   0   0  14 100 97 95 94 91 90 89 87 84 70 67 66 62 45 
   7   0   0  10   0   0   0   8   0   0   0   0   0   0   0   0   0   0   0   0   7   0   4   0   0   0   0   0   0   0   0  14 99 98 97 94 90 87 84 82 71 70 69 63 62 45 
   8   0   0   0   0   0   0   0   0   0   0   0   0   0   0   0   0   0   0   0   0   0   8   0   0   0   0   0   0  10   0  14 101 99 98 93 92 91 86 74 69 68 65 64 57 55 
   3   0   0   0   0   0   0   0   0   0   0   8   0   0   0   0   0   7   0   5   0   0   0   0   0   0   0   5   0   0   0  12 99 98 96 94 87 86 83 82 80 69 68 48 
   7   0   3   0   0   6  10   0   0   0   0   0   0   0   0   0   0   0   0   0   0   0   0   0   0   0   0   0   0   0   0  10 99 96 95 92 91 84 70 63 55 49 
  10   0   0   0   0   0   0   0   0   0   0   0   0   0   0   7   0   0   0   0   6   0   0   0   0   0   0   0   2   0   0  11 101 99 95 92 87 70 69 68 64 62 56 
  10   0   0   0   0   0   0   0   0   0   6   4   0   0   0   0   0   0   0  10   0   0   0  10   0   0   6   0   0   0   0  10 100 99 96 91 87 71 70 69 64 45 
   7   0   0   0   0   0   0   0   0   0   0   0   0   0   0   6   0   0   0   0   0   0   6   0   0   0   0   6   0   5   0  15 99 96 95 92 89 87 86 84 83 81 73 71 67 65 63 
   9   0   6   0   0   0   0   0   0   0   0   0   0   0   6   7   0   0   0   0   0   0   0   0   0   0   0   0   0   0   5  12 96 95 91 90 88 84 83 79 69 68 62 55 
   9   3  10   0   5  10   0   0   0   0   0   0  10   0   0   0   0   0   0   0   0   0   0   0   0   0   0   0   0   0   0  11 101 100 96 91 89 87 82 72 64 62 57 
   8   5   4   0   0   0   0   9   0   0   0   3   0   0   0   0   0   0   6   0  10   0   0   0   0   0   0   0   0   0   0  15 101 94 93 92 90 86 85 84 83 81 78 71 68 65 63 
   5   0   0   0   0   0   0   0   0   0   0   6   0   0   0   0   0   0   0   0   0   0   0   0   0   0   0  10   0   5   0   9 98 97 95 93 84 69 63 62 55 
   7   0   0   0   0   0   0   0   0   0   0   0   0   0   0   6   0   0   0   0   0   0   0   0   0   0   0   5   0   0   0  16 99 98 94 91 90 89 87 85 84 82 81 80 77 71 69 68 
   5   0   0   0   0   0   0   5   0   0   0  10   0   0   0   1   0   0   7   0   0   0   0   0   0   8   0   0   0   0   5  14 94 92 90 89 88 85 84 83 82 80 77 71 70 69 
  10   0   0   0   0   0   0   5   0   0   0   0   0   0   0   0   0   0   5   0   0   0   7   0   0   0   0   0   0   0   0  12 98 97 96 94 91 90 89 88 82 73 71 62 
   1   0   0   0   0   0   0   5   0   4   0   3   0   0   0   3   0   5   0   0  10   0   0   0   0   0   0   0   0   0   6  14 101 98 97 95 93 86 84 83 82 81 80 78 76 70 
   8   0   0  10   0   0   0   6   5   0   0   0   0   0   0   0   0   0   0   0   0   0   0   0   3   4   0   6   0   0   0  13 90 88 87 86 85 83 82 81 80 79 77 76 69 
   8   0   0   0   0   0   0   0   0   0   0   0   0   7   8   0   0   0   0   0   0   0   0   0   0   0   0   0   6   0   0  10 99 98 93 87 83 82 79 78 76 62 
   6   0   0   0  10   0   0   0   6   0   0   7   0   0   0   0   0   5   0   0   0   0   0   0   0   0   0   0   0   0   0  10 88 85 83 81 80 79 78 77 72 68 
   4   0   0   0   0   0   7   0   0   5   0   0   0   0   0   0   0   0   0   0   0   0   9   5   0   0   0   0   0   0   0   8 94 88 86 84 82 77 73 63 
   1   0   0   7   0   0   0   0   0   0   0   0   0   0   0   0   0   0   0   0   0   7   0   0   0   0   0   0   0   0   0  11 94 92 89 86 85 84 83 81 79 78 77 
   6   0   0   0   0   0   6   0   0   0   0   0   0   0   0   0   0   7   0   0   0   0   0   0   0   0   0   8   0   0   0  10 95 93 92 91 88 85 84 81 77 70 
   6   0   0   0   0   0   1   0   0   0   0   0   0   0   0   0   0   0   8   0   0   0   0   0   0   6   0   6   0   0   0   8 97 94 90 89 83 81 77 68 
   9   0   0   5   7   4   0   0   0   0   0   0   0   0   0   0   0   0   0   0   0   6   0   0   8   0   0   0   4   0   0   8 88 87 82 80 79 78 77 76 
  10   0   6   0   0   0   0   0   5   0   4   0   0   0   0   0   0   0   0   0   0   0   0   5   0   0   0   0   0   0   0   8 93 91 83 82 79 78 77 76 
   7   0   0   8   0   7  10   0   0   0   0   0   0   0   0   0   0   0   0   0   0   0   0   0   0   0   0   0   0   0   0   8 96 89 87 81 79 78 77 76 
   7   8   0   0   0   0   0   0   7   7   0   0   0   0   0   0   0   0   7   0   0   9   0   0   0   0   0   0   0   0   0   7 94 86 85 84 81 77 69 
   2   0   0   0   0   7   0   0   0   0   0   5   0   0   0   0   0   0   0   0   0   0   0   7   0   0   6   0   0   0   0   7 98 89 87 83 82 80 71 
   2   0   0   0   0   5   0   0   0   0   4   0   0   0   0   0   0   0   0   0   0   0   0   0   0   0   0   0   0   8   7   7 89 87 85 82 80 78 76 
  10   6   0   0   0   0   9   0   0   0   0   0   0   0   0   0   0   0   0   0   0   0   0   0   0   0   0   0   0   6   0   7 91 90 85 84 82 80 79 
   9   0   0   0   0   0   0   0   0   0   5   0   0   0   0   8   0   5   0   0   3   0   0   0   9   0   7   0   8   0   4   7 88 85 80 79 78 77 76 
   3   0   0   0   0   0   0   0   0   0   0   0   0   0   0   0   0   0   3   0   0   0   0   0   3   0   0   8   0   0   0   7 93 92 89 88 83 78 77 
   9   6   0   0   0   0   0   0   0   0   0   0   0   0   3   8   4   3   0   0   0   8   0   0   0   4  10   0   4   0   0   5 88 87 81 77 69 
   8   0   5   6   0   0   5   0   0   0   0   0   0   0   0   0   8   0   9   0   0   0   5   0   0   0   0   0   0   0   0   4 81 80 69 68 
   4   0   0   0   0   0   3   0   0   0   0   0   0   0   0   0   8   0   0   0   0   0   0   0   0   0   0   0   0   0   0   4 85 83 77 76 
   9   0   0   0   0   0   0   0   0   0   0   0   0   0   0   0   0   9   0   0   2  10   0   0   0   0   0   6   0   0   0   3 86 81 77 
   7   7   7   8   0   0   0   0   0   0   0   6   0   0   0   0   0   0   0   0   0   0   5   0   0   0   0   0   0   0   0   3 80 79 76 
   8   0   0   0   0   0   0   0   0   0   0   0   0   0   0   0   0   0   0   0   0   0   0   2   0   0   0   0   0   0   0   3 84 83 77 
   2   0   7   0   0   0   0   0   0   0   0   0   0   0   0   0   0   4   0   0   0   0   0   0   0   0   4   0   7   9   0   3 88 77 76 
   9   0   0   0   0   0   0   0   0   0   0   5   0   0   0   0   0   0   0   6   7   0   0   0   0   0   0   5   0   5   0   3 85 79 76 
   7   8   0   0   0   0   0   0   0   6   0   5   0   0   0   0   0   0   6   0   0   0   0   0   9   0   0   0   0   0   0   2 82 80 
   8   0   0   0   0   0   0   0   0   0   0   0   0   0   0   0   0   0   6   0   0   0   0   0   0   0   0   0   0   0   0   1 76 
   6   0   0   0   0   0   0   0   0   0   0   5   0   0   0   5   0   7   0   0   6   0   0   0   0   0   0   0   0   0   0   1 78 
   1   0   0   0   0   0   0   0   0   0  10   0   0   0   0   0   0   0   0   0   0   0   0   0   0   0   9   0   0   5   7   1 79 
   6   0   0   0   0   0   0   8   0   0   0   0   0   0   0   0   0   0   0   0   0   0   0   0   0   7   3   0   0   0   0   1 76 
  10   0   0   0   0   0   3   0   0   0   0   0   0   0   0   0   0   0   0   0   0   6   0   0   0   0   0   0   0   0   0   1 86 
   2   0   0   0   0   0   0   0   0   0   0   0   0   7   7   0   0   0   0   0   0   0   0   6   0   0   0   0   0  10   0   1 78 
   9   0   8   4   0   0   0   0   0   9   5   0   0   0   4   0   0   0   0   6   0   0   8   0   0   0   4   0   0   0   9   1 89 
  10   0   0   0   0   0   0   0   0   0   0   0   0   0   0   0   0   8   0   0   0   0   0   0   0  10   0   8   0   0   0   1 84 
   1   0   3   0   0   0   0   0   0   0   0  10   7   0   0   5   0   0   0   0   7   0   0   7   0   7   0   0   9   0   0   1 102
   1   5   0   0   0   0   0   0   0   8   0   0   0   0   8   0   0   0   0   0   0   0   5   0   0   0   0   0   0   8   0   1 102
   9   9   4   0   0   0   0   3   0   7   0   0   0   0   0   0   0   0   0   8   0   0   0   0   0   0   0   0   0   0   0   1 102
   4   0   0   0   0   0   0   7   0   0   0   0   0   5   5   0   0   0   0   0   0   0   0   0   0   0   0   4   0   0   0   1 102
   6   0   0   0   0   0   0   0   0   0   0   0   0   0   0   0   0   0   0   0   0   0   0   0   9   0   0   0   0   0   0   1 102
   9   0   0   0   0   0   0   0   0   0   0   0   0   0   0  10   7   0   5   0   0   0   0   0   0   0   0   8   9   0   0   1 102
   1   0   0   0   7   3   0   0   7   0   0   0   0   0   0   0   0   0   0   0   5   0   0   0   0   0   0   0   0   0   5   1 102
   8   0   0   0   0   0   0   0   0   0   6   0   0   0   0   0   0   0   0   0   0   0   0   0   0   0   0   0   0   0   0   1 102
   8   0   9   0   0   0   0   0   0   0   0   0   0   0   0   9   0   2   7   0   0   0   0   0   5   0   0   0   0   0   0   1 102
   8   0   0   0   0  10   0   0   0   0   0   0   0   0   0   0   7   8   0   0   0   4   0   0   0   0   0   0   0   0   4   1 102
   9   0   0   0   0   0   0   0   0   0   0   6   0   0   0   0   0   0   0   5   0   0   0   5   0   8   0   0   0   0   0   1 102
   2   0   0   0   0   0   0   0   0   0   0   0   0   7   0   0   0  10   4   0   0   0   0   0   0   0   0   0   0   0   9   1 102
   8   0   0   0   0   5   8   7   0   0   0   3   0   0   0   0   0   5   0   0   0   0   0   0   0   0   0   0   0   0   0   1 102
  10   0   5   0   0   0   0   0   5   0   0   8   0   0   0   0   0   0   0   0   0   0   0   0   0   0   0   0   0   0   0   1 102
   6   0   7   8   0   0   0   0   0   0   0   0   0   9   0   0   0   0   0   0   0   0   0   7   0   0   0   0   0   0   0   1 102
   7   0   0   0  10   0   0   0   0   0   0   0   0   0   0   0   0   0   0   0   0   0   0   0   0   0   0   0   0   0   8   1 102
   4   0   0   5   0   0   4   0  10   0   0   0   0   0   0   0   0   0   0   0   0   0   0   0   0   0   0   0   0   0   0   1 102
   2   0   0   5   4   0   0   0   0   0   0   0   6   0   0   0   0   0   0   0   0   6   0   0   0   0   0   0   0   0   0   1 102
   7   0   0   0   0   0   0   9   0   5   7  10   0   0   0   0   0   0   0   0   0   0   0   0   0   0   0   0   0   5   6   1 102
  10   0   0   0   0   0   0   0   0   9   0   8   0   0   0   0   0   0   0   0   0   0   0   0   0   0   0   0   0   0   0   1 102
   7   0   0   0   0   0   0   0  10   0   0   0   0   0   5   7   0   0  10   4   0   0   0   0   0   0   0   0   0   0   0   1 102
  10   0   0   6   0   0   0   0   0   0   0   4   0   0   0   0   7   0   0   5   0   0   0   0   0   0   0   0   0   0   0   1 102
   3   0   0   0   0   0   0   0   0   0   8   7   0   0   0   0   0   0   0   0   0   0   0   0   0   0   0   0   0   0   0   1 102
   8   0   0   0   0   0   0   0   0   0   0   0   6   0   0   0   0   0   0   0   0   0   0   0   0   0   2   0   0   0   0   1 102
  10   8   0   0   0   0   0   0   0   0   0   0   0   0  10   0   0   0   0   9   0   0   0   0   0   8   0   0   0   0   8   1 102
  10   0   0   0   0   0   0   0   0   0   0   0   0   0   0   0   0   0   0   0   0   0   0   0   0   0   0   0   0   0   0   1 102
   0   0   0   0   0   0   0   0   0   0   0   0   0   0   0   0   0   0   0   0   0   0   0   0   0   0   0   0   0   0   0   0 
